sat
(and (INV!slice!1 #x00000000
                  #x00000000
                  #x00000000
                  #x00000000
                  #x00000000
                  #b0
                  #b0
                  #x7
                  #x0
                  #x00000000
                  #x00000000
                  #b1
                  #x00000000
                  #b1
                  #x00000000
                  #b0
                  #b0
                  #x00000000
                  #x00000000
                  #b0
                  #b0
                  #b0)
     (INV!slice!1 #x00000000
                  #x00000000
                  #x00000000
                  #x00000000
                  #x00000000
                  #b1
                  #b0
                  #x7
                  #x7
                  #x00000000
                  #x00000000
                  #b0
                  #x00000000
                  #b0
                  #x00000000
                  #b0
                  #b1
                  #x00000001
                  #x00000000
                  #b1
                  #b1
                  #b0)
     (INV!slice!1 #x00000000
                  #x00000000
                  #x00000000
                  #x00000000
                  #x00000000
                  #b1
                  #b0
                  #x7
                  #x7
                  #x00000000
                  #x00000000
                  #b0
                  #x00000001
                  #b0
                  #x00000000
                  #b0
                  #b1
                  #x00000001
                  #x00000000
                  #b1
                  #b1
                  #b0)
     (INV!slice!1 #x00000000
                  #x00000000
                  #x00000000
                  #x00000000
                  #x00000001
                  #b1
                  #b0
                  #x7
                  #x7
                  #x00000000
                  #x00000000
                  #b0
                  #x00000000
                  #b0
                  #x00000000
                  #b0
                  #b1
                  #x00000001
                  #x00000000
                  #b1
                  #b1
                  #b0)
     (INV!slice!1 #x00000000
                  #x00000000
                  #x00000000
                  #x00000001
                  #x00000000
                  #b1
                  #b0
                  #x7
                  #x7
                  #x00000000
                  #x00000000
                  #b0
                  #x00000000
                  #b0
                  #x00000000
                  #b0
                  #b1
                  #x00000001
                  #x00000000
                  #b1
                  #b1
                  #b0)
     (INV!slice!1 #x00000000
                  #x00000000
                  #x01000000
                  #x00000000
                  #x00000000
                  #b1
                  #b0
                  #x7
                  #x7
                  #x00000000
                  #x00000000
                  #b0
                  #x00000000
                  #b0
                  #x00000000
                  #b0
                  #b1
                  #x00000001
                  #x00000000
                  #b1
                  #b1
                  #b0)
     (INV!slice!1 #x00000000
                  #x00000001
                  #x00000000
                  #x00000000
                  #x00000000
                  #b1
                  #b0
                  #x7
                  #x7
                  #x00000000
                  #x00000000
                  #b0
                  #x00000000
                  #b0
                  #x00000000
                  #b0
                  #b1
                  #x00000001
                  #x00000000
                  #b1
                  #b1
                  #b0)
     (INV!slice!1 #x00000001
                  #x00000000
                  #x00000000
                  #x00000000
                  #x00000000
                  #b1
                  #b0
                  #x7
                  #x7
                  #x00000000
                  #x00000002
                  #b1
                  #x00000000
                  #b0
                  #x00000000
                  #b0
                  #b1
                  #x00000000
                  #x00000000
                  #b1
                  #b0
                  #b0)
     (INV!slice!1 #x00000001
                  #x00000000
                  #x00000000
                  #x00000000
                  #x00000000
                  #b1
                  #b0
                  #x8
                  #x8
                  #x00000000
                  #x00000000
                  #b0
                  #x00000000
                  #b0
                  #x00000000
                  #b0
                  #b0
                  #x00000000
                  #x00000000
                  #b1
                  #b0
                  #b0)
     (INV!slice!1 #x00000000
                  #x00000000
                  #x00000000
                  #x00000000
                  #x00000000
                  #b1
                  #b0
                  #x7
                  #x7
                  #x00000000
                  #x00000000
                  #b0
                  #x00000000
                  #b0
                  #x00000000
                  #b0
                  #b1
                  #x00000000
                  #x00000000
                  #b0
                  #b0
                  #b0)
     (INV!slice!1 #x00000000
                  #x00000000
                  #x00000000
                  #x00000000
                  #x00000000
                  #b1
                  #b0
                  #x6
                  #x6
                  #x00000000
                  #x00000000
                  #b0
                  #x00000000
                  #b0
                  #x00000000
                  #b0
                  #b1
                  #x00000000
                  #x00000000
                  #b0
                  #b0
                  #b0)
     (INV!slice!1 #x00000000
                  #x00000000
                  #x00000000
                  #x00000000
                  #x00000000
                  #b1
                  #b0
                  #x5
                  #x5
                  #x00000000
                  #x00000000
                  #b0
                  #x00000000
                  #b0
                  #x00000000
                  #b0
                  #b1
                  #x00000000
                  #x00000000
                  #b0
                  #b0
                  #b0)
     (INV!slice!1 #x00000000
                  #x00000000
                  #x00000000
                  #x00000000
                  #x00000000
                  #b1
                  #b0
                  #x4
                  #x4
                  #x00000000
                  #x00000000
                  #b0
                  #x00000000
                  #b0
                  #x00000000
                  #b0
                  #b1
                  #x00000000
                  #x00000000
                  #b0
                  #b0
                  #b0)
     (INV!slice!1 #x00000000
                  #x00000000
                  #x00000000
                  #x00000000
                  #x00000000
                  #b1
                  #b0
                  #x3
                  #x3
                  #x00000000
                  #x00000000
                  #b0
                  #x00000000
                  #b0
                  #x00000000
                  #b0
                  #b1
                  #x00000000
                  #x00000000
                  #b0
                  #b0
                  #b0)
     (INV!slice!1 #x00000000
                  #x00000000
                  #x00000000
                  #x00000000
                  #x00000000
                  #b1
                  #b0
                  #x2
                  #x2
                  #x00000000
                  #x00000000
                  #b0
                  #x00000000
                  #b0
                  #x00000000
                  #b0
                  #b1
                  #x00000000
                  #x00000000
                  #b0
                  #b0
                  #b0)
     (INV!slice!1 #x00000000
                  #x00000000
                  #x00000000
                  #x00000000
                  #x00000000
                  #b1
                  #b0
                  #x1
                  #x1
                  #x00000000
                  #x00000000
                  #b0
                  #x00000000
                  #b0
                  #x00000000
                  #b0
                  #b1
                  #x00000000
                  #x00000000
                  #b0
                  #b0
                  #b0)
     (INV!slice!1 #x00000000
                  #x00000000
                  #x00000000
                  #x00000000
                  #x00000000
                  #b1
                  #b0
                  #x0
                  #x0
                  #x00000000
                  #x00000000
                  #b0
                  #x00000000
                  #b0
                  #x00000000
                  #b0
                  #b1
                  #x00000000
                  #x00000000
                  #b0
                  #b0
                  #b0)
     (INV!slice!1 #x00000000
                  #x00000000
                  #x00000000
                  #x00000000
                  #x00000000
                  #b1
                  #b1
                  #x1
                  #x0
                  #x00000000
                  #x00000000
                  #b0
                  #x00000000
                  #b0
                  #x00000000
                  #b0
                  #b0
                  #x00000000
                  #x00000000
                  #b0
                  #b0
                  #b1))
